20 59 155
1 5 5
1 6 3
1 7 3
1 8 5
1 11 5
1 14 3
1 17 5
1 19 3
2 3 5
2 10 4
2 13 4
2 15 5
3 6 5
3 9 4
3 12 5
3 16 5
3 20 5
4 6 2
4 7 4
4 12 3
4 14 4
4 20 5
5 6 2
5 8 2
5 10 4
5 15 5
5 16 1
5 20 1
6 8 4
6 10 3
6 12 2
6 20 1
7 12 1
7 17 5
8 9 3
8 13 4
8 16 5
8 17 1
8 20 4
9 15 4
9 16 4
9 17 5
10 11 2
10 14 4
10 15 3
10 16 3
11 15 3
11 19 1
12 19 5
13 17 5
13 19 1
14 15 3
14 16 4
14 19 2
14 20 2
15 19 1
17 19 4
17 20 1
18 19 2
